100
1490
10
89
61
60
90
51
67
88
91
62
23
0 3
0 5
0 10
0 13
0 17
0 26
0 27
0 33
0 34
0 36
0 37
0 43
0 49
0 54
0 55
0 58
0 61
0 66
0 69
0 71
0 73
0 76
0 78
0 80
0 82
0 86
0 87
0 89
0 91
0 92
0 93
0 96
0 97
0 98
1 3
1 4
1 6
1 8
1 13
1 15
1 19
1 20
1 21
1 22
1 24
1 26
1 27
1 31
1 37
1 39
1 42
1 44
1 48
1 52
1 57
1 64
1 70
1 71
1 72
1 74
1 75
1 82
1 87
1 93
2 4
2 7
2 8
2 11
2 17
2 18
2 20
2 22
2 28
2 35
2 38
2 39
2 41
2 42
2 44
2 47
2 52
2 53
2 55
2 60
2 63
2 68
2 70
2 71
2 72
2 73
2 74
2 76
2 79
2 81
2 82
2 83
2 84
2 86
2 91
2 96
3 4
3 5
3 8
3 9
3 11
3 14
3 19
3 20
3 22
3 26
3 29
3 31
3 34
3 37
3 40
3 41
3 53
3 64
3 65
3 66
3 68
3 79
3 80
3 82
3 83
3 85
3 86
3 94
3 96
4 9
4 10
4 13
4 14
4 18
4 20
4 24
4 33
4 40
4 42
4 46
4 50
4 59
4 60
4 64
4 65
4 66
4 70
4 72
4 74
4 76
4 78
4 79
4 81
4 91
4 98
5 6
5 9
5 10
5 13
5 20
5 22
5 29
5 38
5 39
5 41
5 44
5 47
5 49
5 54
5 55
5 60
5 63
5 66
5 67
5 72
5 76
5 81
5 84
5 90
5 98
6 8
6 12
6 17
6 21
6 24
6 30
6 35
6 39
6 43
6 44
6 45
6 46
6 47
6 51
6 53
6 54
6 55
6 59
6 64
6 70
6 78
6 79
6 83
6 85
6 88
6 95
7 11
7 15
7 24
7 25
7 28
7 29
7 31
7 32
7 35
7 36
7 40
7 41
7 44
7 45
7 46
7 54
7 58
7 64
7 66
7 77
7 82
7 85
7 86
7 99
8 9
8 13
8 20
8 22
8 26
8 32
8 33
8 34
8 39
8 43
8 44
8 53
8 54
8 55
8 63
8 65
8 66
8 69
8 79
8 86
8 87
8 90
8 99
9 13
9 14
9 16
9 21
9 22
9 23
9 24
9 29
9 30
9 32
9 33
9 36
9 39
9 48
9 49
9 50
9 52
9 60
9 61
9 63
9 64
9 69
9 70
9 72
9 74
9 75
9 76
9 78
9 79
9 81
9 90
9 91
9 94
10 12
10 20
10 24
10 25
10 32
10 34
10 42
10 44
10 46
10 47
10 48
10 51
10 53
10 55
10 58
10 62
10 64
10 65
10 72
10 73
10 75
10 83
10 91
10 92
10 97
10 98
11 13
11 14
11 16
11 18
11 22
11 26
11 31
11 32
11 33
11 35
11 38
11 39
11 44
11 49
11 50
11 54
11 55
11 57
11 58
11 64
11 66
11 68
11 73
11 77
11 81
11 83
11 85
11 91
11 93
11 96
11 98
11 99
12 14
12 29
12 33
12 36
12 39
12 40
12 41
12 42
12 43
12 46
12 59
12 60
12 61
12 62
12 65
12 69
12 73
12 76
12 80
12 86
12 91
12 93
12 95
12 97
13 14
13 15
13 16
13 25
13 27
13 32
13 33
13 34
13 39
13 52
13 58
13 60
13 67
13 68
13 77
13 80
13 84
13 85
13 86
13 92
13 93
13 95
13 97
13 98
13 99
14 22
14 23
14 27
14 30
14 31
14 32
14 37
14 42
14 43
14 48
14 51
14 58
14 61
14 71
14 73
14 75
14 80
14 85
14 90
14 93
14 97
14 99
15 16
15 17
15 19
15 20
15 26
15 28
15 29
15 33
15 34
15 36
15 45
15 46
15 51
15 54
15 70
15 71
15 72
15 73
15 75
15 81
15 84
15 85
15 86
15 87
15 91
15 93
15 97
15 99
16 22
16 29
16 34
16 39
16 44
16 45
16 46
16 47
16 50
16 52
16 53
16 57
16 59
16 63
16 67
16 68
16 70
16 71
16 77
16 82
16 83
16 85
16 87
16 90
16 91
16 92
17 18
17 19
17 40
17 43
17 44
17 45
17 46
17 49
17 50
17 52
17 53
17 55
17 56
17 60
17 74
17 84
17 88
17 89
17 92
17 93
18 22
18 24
18 33
18 34
18 37
18 39
18 40
18 42
18 44
18 47
18 49
18 51
18 52
18 57
18 63
18 67
18 69
18 75
18 76
18 79
18 80
18 81
18 85
18 89
18 91
18 93
18 94
18 95
18 98
19 24
19 28
19 29
19 31
19 32
19 34
19 38
19 44
19 53
19 64
19 68
19 69
19 70
19 71
19 72
19 73
19 75
19 79
19 80
19 83
19 84
19 85
19 86
19 87
19 89
19 97
19 99
20 21
20 24
20 25
20 28
20 34
20 37
20 40
20 42
20 43
20 46
20 48
20 54
20 57
20 58
20 59
20 60
20 69
20 75
20 79
20 80
20 85
20 87
20 91
20 92
21 22
21 29
21 30
21 36
21 38
21 39
21 40
21 41
21 43
21 46
21 50
21 51
21 52
21 55
21 60
21 61
21 68
21 70
21 72
21 73
21 74
21 77
21 78
21 80
21 82
21 85
21 88
21 95
21 97
21 98
22 28
22 32
22 34
22 41
22 42
22 44
22 45
22 48
22 53
22 54
22 55
22 57
22 59
22 66
22 68
22 69
22 71
22 74
22 81
22 86
22 89
22 92
23 28
23 30
23 31
23 33
23 39
23 49
23 51
23 55
23 56
23 64
23 69
23 70
23 74
23 76
23 78
23 85
23 89
23 93
23 99
24 27
24 39
24 44
24 45
24 47
24 49
24 50
24 54
24 55
24 56
24 59
24 64
24 71
24 75
24 76
24 81
24 84
24 88
24 92
25 32
25 33
25 35
25 36
25 37
25 38
25 43
25 44
25 45
25 46
25 52
25 57
25 63
25 65
25 67
25 69
25 72
25 78
25 81
25 82
25 85
25 87
25 88
25 91
25 99
26 32
26 34
26 35
26 40
26 52
26 54
26 55
26 56
26 57
26 63
26 64
26 66
26 68
26 70
26 73
26 75
26 76
26 78
26 83
26 87
26 89
26 94
26 98
27 37
27 38
27 40
27 44
27 45
27 47
27 48
27 51
27 52
27 57
27 60
27 69
27 70
27 74
27 75
27 78
27 79
27 81
27 87
27 89
27 92
27 93
27 97
28 30
28 32
28 33
28 35
28 39
28 40
28 46
28 49
28 50
28 52
28 55
28 57
28 62
28 63
28 67
28 70
28 73
28 74
28 75
28 77
28 86
28 89
28 93
29 31
29 34
29 38
29 41
29 43
29 47
29 50
29 55
29 56
29 60
29 63
29 65
29 70
29 73
29 74
29 75
29 76
29 80
29 81
29 84
29 85
29 86
29 87
29 91
29 93
29 98
29 99
30 33
30 35
30 38
30 40
30 41
30 45
30 52
30 55
30 68
30 69
30 73
30 75
30 80
30 86
30 90
30 98
30 99
31 36
31 45
31 46
31 50
31 54
31 60
31 62
31 63
31 66
31 69
31 70
31 73
31 74
31 77
31 78
31 85
31 90
31 94
31 98
32 36
32 42
32 44
32 46
32 47
32 48
32 50
32 52
32 53
32 54
32 55
32 57
32 71
32 72
32 76
32 79
32 83
32 85
32 90
32 94
32 95
32 96
32 99
33 35
33 36
33 37
33 38
33 40
33 46
33 49
33 57
33 63
33 69
33 70
33 75
33 76
33 79
33 83
33 84
33 92
33 94
33 95
33 99
34 36
34 39
34 47
34 51
34 52
34 56
34 58
34 59
34 61
34 78
34 80
34 83
34 86
34 91
34 93
34 94
35 38
35 43
35 44
35 50
35 53
35 55
35 56
35 59
35 61
35 62
35 64
35 65
35 66
35 71
35 72
35 74
35 75
35 77
35 80
35 82
35 84
35 85
35 93
35 94
35 99
36 39
36 45
36 46
36 48
36 50
36 65
36 66
36 67
36 71
36 72
36 74
36 75
36 76
36 77
36 82
36 92
36 93
36 96
36 98
37 38
37 42
37 44
37 51
37 52
37 53
37 57
37 65
37 71
37 85
37 88
37 94
37 95
37 97
38 42
38 43
38 49
38 52
38 53
38 56
38 58
38 62
38 73
38 75
38 78
38 80
38 81
38 82
38 83
38 88
38 89
38 93
38 94
38 97
38 98
39 42
39 45
39 50
39 56
39 60
39 62
39 65
39 68
39 72
39 77
39 78
39 88
39 90
39 94
39 97
39 98
39 99
40 45
40 49
40 51
40 55
40 56
40 58
40 64
40 67
40 72
40 74
40 76
40 81
40 88
40 89
40 99
41 49
41 54
41 56
41 59
41 65
41 67
41 74
41 80
41 89
41 90
41 95
41 97
42 46
42 47
42 56
42 61
42 62
42 63
42 64
42 71
42 77
42 78
42 81
42 90
42 94
43 44
43 47
43 48
43 50
43 53
43 57
43 60
43 63
43 64
43 67
43 68
43 74
43 76
43 80
43 83
43 88
43 90
43 93
43 99
44 60
44 61
44 62
44 63
44 65
44 68
44 69
44 72
44 73
44 75
44 76
44 77
44 80
44 87
44 91
44 93
44 95
45 51
45 62
45 67
45 68
45 74
45 75
45 76
45 79
45 80
45 82
45 83
45 85
45 86
45 95
45 98
45 99
46 47
46 51
46 52
46 59
46 60
46 61
46 62
46 75
46 78
46 82
46 88
46 89
46 95
46 96
46 97
47 51
47 58
47 60
47 62
47 64
47 66
47 67
47 69
47 79
47 80
47 83
47 88
47 92
47 95
48 49
48 52
48 54
48 57
48 58
48 60
48 66
48 69
48 70
48 71
48 75
48 77
48 78
48 88
48 97
49 54
49 55
49 64
49 65
49 67
49 70
49 74
49 76
49 80
49 84
49 86
49 89
49 92
49 94
49 96
49 97
49 98
49 99
50 51
50 54
50 57
50 61
50 62
50 64
50 66
50 68
50 75
50 76
50 81
50 85
50 86
50 87
50 89
50 90
50 95
50 96
51 57
51 63
51 70
51 73
51 75
51 84
51 86
51 90
51 91
51 96
52 53
52 55
52 56
52 57
52 69
52 73
52 74
52 76
52 78
52 81
52 85
52 87
52 88
52 96
52 97
52 99
53 54
53 57
53 58
53 64
53 67
53 70
53 74
53 77
53 78
53 82
53 84
53 88
53 94
53 98
54 60
54 61
54 62
54 64
54 69
54 70
54 72
54 73
54 77
54 79
54 82
54 85
54 87
54 90
54 94
54 99
55 59
55 60
55 66
55 67
55 70
55 75
55 77
55 79
55 85
55 89
55 92
55 93
55 94
55 96
55 99
56 63
56 64
56 67
56 70
56 73
56 76
56 77
56 83
56 90
56 92
56 95
56 97
57 64
57 69
57 74
57 77
57 78
57 79
57 83
57 84
57 91
57 95
57 97
57 99
58 60
58 83
58 86
58 87
58 93
58 97
58 98
58 99
59 67
59 69
59 73
59 74
59 78
59 81
59 82
59 83
59 87
59 90
59 96
59 99
60 61
60 62
60 70
60 71
60 72
60 73
60 74
60 75
60 81
60 82
60 83
60 85
60 88
60 89
60 92
60 93
60 97
60 98
61 65
61 69
61 70
61 78
61 79
61 80
61 88
61 92
61 94
61 95
61 99
62 65
62 69
62 70
62 81
62 84
62 95
63 64
63 66
63 72
63 79
63 84
63 85
63 93
63 98
63 99
64 66
64 67
64 69
64 72
64 73
64 77
64 79
64 81
64 82
64 83
64 84
64 85
64 88
64 91
64 92
64 93
64 94
65 67
65 74
65 79
65 87
65 88
65 94
66 67
66 68
66 69
66 76
66 77
66 81
66 87
66 89
66 92
66 97
67 68
67 69
67 75
67 77
67 79
67 80
67 82
67 84
67 89
67 92
67 94
67 96
67 97
67 99
68 69
68 71
68 77
68 82
68 86
68 91
68 96
69 73
69 76
69 80
69 81
69 83
69 84
69 86
69 87
69 91
69 95
69 98
70 71
70 77
70 82
70 84
70 85
70 87
70 93
70 95
70 96
71 72
71 84
71 85
71 88
71 95
71 96
71 99
72 75
72 77
72 80
72 81
72 82
72 85
72 86
72 87
72 89
72 91
72 93
72 94
72 95
73 77
73 80
73 84
73 92
74 76
74 80
74 81
74 91
74 94
74 95
74 97
74 99
75 78
75 79
75 80
75 82
75 93
76 77
76 84
76 86
76 90
76 95
76 99
77 83
77 93
77 94
77 96
77 98
78 79
78 97
79 87
79 93
80 81
80 87
80 89
80 90
80 91
80 95
80 97
80 98
80 99
81 83
81 84
81 87
81 91
81 97
81 98
82 83
82 84
82 86
82 87
82 88
82 90
82 98
82 99
83 85
83 88
83 93
83 94
83 95
83 96
84 86
84 88
84 89
84 92
84 95
84 98
85 87
85 92
85 93
85 94
86 88
86 89
86 95
86 96
87 89
87 91
87 93
87 98
88 89
88 91
88 94
89 91
89 93
89 97
91 94
91 95
91 98
91 99
92 94
92 97
93 95
93 98
94 95
36 59 25 74 85 69 91 16 88 6
96 62 71 33 7 4 10 61 41 8
2 15 55 94 3 14 19 87 73 17
99 64 23 46 97 22 49 24 66 75
56 60 95 92 0 45 35 5 81 44
83 38 13 77 68 40 9 65 54 72
51 32 78 63 86 20 70 84 48 67
90 34 50 57 89 52 30 28 47 79
76 93 27 37 80 39 29 43 31 98
11 58 82 42 26 12 21 18 1 53
